solution status: optimal solution found
objective value:                                    0
$_108_y                                            19 	(obj:0)
$_108_z                                            19 	(obj:0)
$_83_y                                             20 	(obj:0)
$_83_z                                             25 	(obj:0)
$_84_y                                             20 	(obj:0)
$_84_z                                             19 	(obj:0)
$_126_y                                            22 	(obj:0)
$_126_z                                            19 	(obj:0)
$_158_y                                            19 	(obj:0)
$_158_z                                            18 	(obj:0)
$_119_y                                            23 	(obj:0)
$_119_z                                            23 	(obj:0)
$_175_y                                            19 	(obj:0)
$_175_z                                            21 	(obj:0)
$_41_y                                             23 	(obj:0)
$_41_z                                             21 	(obj:0)
$_174_y                                            21 	(obj:0)
$_174_z                                            22 	(obj:0)
$_86_y                                             16 	(obj:0)
$_86_z                                             22 	(obj:0)
$_115_y                                            17 	(obj:0)
$_115_z                                            19 	(obj:0)
$_139_y                                            23 	(obj:0)
$_139_z                                            22 	(obj:0)
$_96_y                                             15 	(obj:0)
$_96_z                                             21 	(obj:0)
$_159_y                                            19 	(obj:0)
$_159_z                                            20 	(obj:0)
$_185_y                                            18 	(obj:0)
$_185_z                                            23 	(obj:0)
$_152_y                                            20 	(obj:0)
$_152_z                                            21 	(obj:0)
$_104_y                                            19 	(obj:0)
$_104_z                                            25 	(obj:0)
$_156_y                                            21 	(obj:0)
$_156_z                                            19 	(obj:0)
$_161_y                                            20 	(obj:0)
$_161_z                                            20 	(obj:0)
$_182_y                                            21 	(obj:0)
$_182_z                                            25 	(obj:0)
$_42_y                                             18 	(obj:0)
$_42_z                                             25 	(obj:0)
$_64_y                                             18 	(obj:0)
$_64_z                                             20 	(obj:0)
$_183_y                                            18 	(obj:0)
$_183_z                                            19 	(obj:0)
$_87_y                                             16 	(obj:0)
$_87_z                                             21 	(obj:0)
$_63_y                                             23 	(obj:0)
$_63_z                                             20 	(obj:0)
$_168_y                                            21 	(obj:0)
$_168_z                                            23 	(obj:0)
$_135_y                                            22 	(obj:0)
$_135_z                                            23 	(obj:0)
$_172_y                                            18 	(obj:0)
$_172_z                                            21 	(obj:0)
$_125_y                                            24 	(obj:0)
$_125_z                                            22 	(obj:0)
$_143_y                                            20 	(obj:0)
$_143_z                                            24 	(obj:0)
$_78_y                                             16 	(obj:0)
$_78_z                                             23 	(obj:0)
$_124_y                                            24 	(obj:0)
$_124_z                                            23 	(obj:0)
$_177_y                                            20 	(obj:0)
$_177_z                                            22 	(obj:0)
$_27_y                                             17 	(obj:0)
$_27_z                                             25 	(obj:0)
$_127_y                                            19 	(obj:0)
$_127_z                                            24 	(obj:0)
$_105_y                                            22 	(obj:0)
$_105_z                                            25 	(obj:0)
$_49_y                                             17 	(obj:0)
$_49_z                                             21 	(obj:0)
$_145_y                                            23 	(obj:0)
$_145_z                                            19 	(obj:0)
$_100_y                                            22 	(obj:0)
$_100_z                                            24 	(obj:0)
$_128_y                                            24 	(obj:0)
$_128_z                                            21 	(obj:0)
$_107_y                                            19 	(obj:0)
$_107_z                                            22 	(obj:0)
$_142_y                                            21 	(obj:0)
$_142_z                                            21 	(obj:0)
